338.46,266.0,447.0
288.43,266.0,330.0
265.66,252.0,282.0
252.72,230.0,267.0
241.12,229.0,256.0
230.56,215.0,242.0
222.2,206.0,231.0
212.09,206.0,226.0
206.46,200.0,218.0
201.62,190.0,208.0
193.65,185.0,204.0
187.27,183.0,197.0
181.73,175.0,189.0
178.85,174.0,189.0
174.87,169.0,183.0
170.53,164.0,175.0
166.68,162.0,173.0
163.33,161.0,169.0
160.05,153.0,167.0
156.81,150.0,164.0
152.15,144.0,163.0
147.16,144.0,155.0
144.77,141.0,149.0
142.71,138.0,146.0
139.13,134.0,146.0
136.0,128.0,141.0
132.59,123.0,140.0
128.46,125.0,136.0
125.91,122.0,134.0
124.81,122.0,128.0
122.79,118.0,130.0
121.18,118.0,129.0
118.33,113.0,127.0
116.46,111.0,123.0
114.28,111.0,123.0
113.22,111.0,117.0
112.38,111.0,115.0
111.63,108.0,117.0
110.05,106.0,116.0
107.98,106.0,114.0
106.02,99.0,111.0
103.76,100.0,109.0
100.31,96.0,108.0
98.18,96.0,110.0
96.15,94.0,101.0
95.72,93.0,103.0
94.75,93.0,104.0
93.04,90.0,96.0
92.68,90.0,101.0
91.51,90.0,94.0
90.76,89.0,93.0
90.18,89.0,93.0
89.94,89.0,93.0
89.43,88.0,93.0
89.34,87.0,100.0
89.15,87.0,97.0
88.4,87.0,96.0
87.96,86.0,93.0
87.6,86.0,93.0
86.9,86.0,94.0
86.57,85.0,91.0
86.31,86.0,91.0
86.29,86.0,95.0
86.04,84.0,90.0
85.66,84.0,91.0
85.01,84.0,88.0
84.25,83.0,89.0
83.76,82.0,87.0
83.68,82.0,91.0
82.65,81.0,90.0
82.28,81.0,92.0
82.25,80.0,92.0
81.98,81.0,90.0
81.65,80.0,91.0
81.27,80.0,88.0
80.76,79.0,85.0
80.19,78.0,86.0
79.44,79.0,83.0
79.07,78.0,88.0
78.77,78.0,85.0
78.49,78.0,82.0
78.08,77.0,82.0
77.99,77.0,85.0
77.85,77.0,86.0
77.57,77.0,88.0
77.18,76.0,85.0
76.96,76.0,83.0
76.42,76.0,83.0
76.12,76.0,80.0
76.18,76.0,81.0
76.05,76.0,81.0
76.15,76.0,81.0
76.07,76.0,80.0
76.08,76.0,80.0
76.05,76.0,79.0
76.0,75.0,79.0
75.79,75.0,78.0
75.53,75.0,82.0
75.25,75.0,82.0
75.31,75.0,84.0
75.29,75.0,82.0
75.02,75.0,77.0
75.07,75.0,77.0
75.17,75.0,80.0
75.09,75.0,80.0
75.0,75.0,75.0
75.14,75.0,79.0
75.15,75.0,80.0
75.05,75.0,78.0
75.25,75.0,81.0
75.18,75.0,78.0
75.07,75.0,78.0
75.1,75.0,83.0
75.04,75.0,76.0
75.23,75.0,81.0
75.06,75.0,80.0
75.08,75.0,81.0
75.29,75.0,80.0
75.07,75.0,79.0
75.09,74.0,87.0
75.0,75.0,75.0
75.1,74.0,84.0
74.88,74.0,79.0
74.75,74.0,79.0
74.39,74.0,83.0
74.31,74.0,80.0
74.14,74.0,82.0
74.01,72.0,78.0
74.02,72.0,86.0
73.92,72.0,82.0
73.56,72.0,74.0
73.17,72.0,75.0
73.04,72.0,79.0
72.84,72.0,81.0
72.14,72.0,78.0
72.38,72.0,81.0
72.11,72.0,80.0
72.09,72.0,78.0
72.09,72.0,78.0
72.11,72.0,78.0
72.28,72.0,83.0
72.14,72.0,81.0
72.15,72.0,79.0
72.19,72.0,78.0
72.05,72.0,77.0
72.03,72.0,75.0
72.27,72.0,81.0
72.04,72.0,74.0
72.1,72.0,76.0
72.22,72.0,78.0
72.29,72.0,78.0
72.39,72.0,79.0
72.21,72.0,80.0
72.23,72.0,79.0
72.14,72.0,81.0
72.05,72.0,74.0
72.12,72.0,80.0
72.19,72.0,81.0
72.23,72.0,76.0
72.16,72.0,79.0
72.18,72.0,79.0
72.18,72.0,78.0
72.15,72.0,78.0
72.15,72.0,80.0
72.14,72.0,79.0
72.26,72.0,81.0
72.13,72.0,77.0
72.23,72.0,77.0
72.09,72.0,79.0
72.22,72.0,77.0
72.03,72.0,75.0
72.08,72.0,80.0
72.14,72.0,78.0
72.0,72.0,72.0
72.1,72.0,77.0
72.08,72.0,80.0
72.33,71.0,82.0
72.12,71.0,80.0
72.14,71.0,77.0
71.58,71.0,73.0
71.14,71.0,72.0
71.08,71.0,74.0
71.01,71.0,72.0
71.11,71.0,80.0
71.1,71.0,79.0
71.2,71.0,80.0
71.04,71.0,73.0
71.02,71.0,73.0
71.07,71.0,74.0
71.11,71.0,75.0
71.0,71.0,71.0
71.18,71.0,78.0
71.16,71.0,79.0
71.3,71.0,80.0
71.45,71.0,83.0
71.01,71.0,72.0
71.11,71.0,78.0
71.0,71.0,71.0
71.07,71.0,77.0
71.07,71.0,77.0
71.04,71.0,75.0
71.09,71.0,76.0
71.13,71.0,76.0
71.08,71.0,74.0
71.04,71.0,75.0
71.09,71.0,80.0
71.0,71.0,71.0
71.0,71.0,71.0
71.14,71.0,80.0
71.01,71.0,72.0
71.13,71.0,75.0
71.1,71.0,74.0
71.09,71.0,79.0
71.21,71.0,75.0
71.22,71.0,80.0
71.22,71.0,83.0
71.04,71.0,73.0
71.0,71.0,71.0
71.16,71.0,78.0
71.1,71.0,81.0
71.0,71.0,71.0
71.08,71.0,79.0
71.4,71.0,79.0
71.16,71.0,78.0
71.09,71.0,76.0
71.01,71.0,72.0
71.03,71.0,73.0
71.11,71.0,77.0
71.13,71.0,77.0
71.0,71.0,71.0
71.01,71.0,72.0
71.03,71.0,74.0
71.06,71.0,77.0
71.05,71.0,74.0
71.13,71.0,76.0
71.0,71.0,71.0
71.04,71.0,74.0
71.02,71.0,72.0
71.06,71.0,74.0
71.02,71.0,73.0
71.27,71.0,76.0
71.34,71.0,83.0
71.24,71.0,75.0
71.08,71.0,74.0
71.03,71.0,74.0
71.05,71.0,74.0
71.28,71.0,79.0
71.04,71.0,72.0
71.23,71.0,76.0
71.21,71.0,77.0
71.14,71.0,77.0
71.01,71.0,72.0
71.12,71.0,76.0
71.3,71.0,78.0
71.05,71.0,74.0
71.04,71.0,74.0
71.18,71.0,80.0
71.23,71.0,80.0
71.0,71.0,71.0
71.35,71.0,79.0
71.02,71.0,72.0
71.2,71.0,77.0
71.21,71.0,78.0
71.12,71.0,78.0
71.05,71.0,76.0
71.07,71.0,74.0
71.11,71.0,79.0
71.14,71.0,77.0
71.1,71.0,77.0
71.25,71.0,80.0
71.2,71.0,82.0
71.42,71.0,80.0
71.07,71.0,76.0
71.18,71.0,80.0
71.1,71.0,76.0
71.12,71.0,76.0
71.09,71.0,76.0
71.09,71.0,76.0
71.0,71.0,71.0
71.09,71.0,79.0
71.08,71.0,77.0
71.02,71.0,72.0
71.12,71.0,77.0
71.0,71.0,71.0
71.22,71.0,77.0
71.0,71.0,71.0
71.17,71.0,79.0
71.04,71.0,73.0
71.11,71.0,78.0
71.09,71.0,77.0
71.17,71.0,76.0
71.14,71.0,76.0
71.23,71.0,79.0
71.01,71.0,72.0
71.0,71.0,71.0
71.13,71.0,78.0
71.13,71.0,78.0
71.1,71.0,79.0
71.06,71.0,76.0
71.13,71.0,77.0
71.12,71.0,76.0
71.11,71.0,77.0
71.32,71.0,77.0
71.15,71.0,74.0
71.18,71.0,80.0
71.21,71.0,77.0
71.04,71.0,73.0
71.14,71.0,76.0
71.01,71.0,72.0
71.06,71.0,74.0
71.34,71.0,81.0
71.16,71.0,81.0
71.08,71.0,75.0
71.3,71.0,83.0
71.06,71.0,74.0
71.05,71.0,74.0
71.04,71.0,75.0
71.0,71.0,71.0
71.06,71.0,75.0
71.44,71.0,84.0
71.09,71.0,74.0
71.09,71.0,80.0
71.07,71.0,75.0
71.2,71.0,78.0
71.04,71.0,74.0
71.1,71.0,76.0
71.04,71.0,72.0
71.12,71.0,74.0
71.3,71.0,77.0
71.36,71.0,78.0
71.15,71.0,80.0
71.1,71.0,75.0
71.09,71.0,73.0
71.15,71.0,79.0
71.35,71.0,80.0
71.27,71.0,82.0
71.14,71.0,80.0
71.02,71.0,73.0
71.39,71.0,78.0
71.73,71.0,79.0
71.29,71.0,83.0
71.25,71.0,77.0
71.22,71.0,79.0
71.25,71.0,78.0
71.21,71.0,79.0
71.72,71.0,81.0
71.62,71.0,82.0
71.2,71.0,78.0
71.21,71.0,78.0
71.21,71.0,77.0
71.11,71.0,77.0
71.19,71.0,77.0
71.03,71.0,72.0
71.12,71.0,75.0
71.29,71.0,78.0
71.17,71.0,76.0
71.25,71.0,80.0
71.14,71.0,75.0
71.24,71.0,79.0
71.18,71.0,85.0
71.05,71.0,73.0
71.03,71.0,73.0
71.09,71.0,78.0
71.03,71.0,74.0
71.07,71.0,76.0
71.08,71.0,75.0
71.11,71.0,77.0
71.19,71.0,81.0
71.34,71.0,79.0
71.13,71.0,80.0
71.25,71.0,79.0
71.14,71.0,78.0
71.09,71.0,76.0
71.28,71.0,80.0
71.45,71.0,80.0
71.11,71.0,74.0
71.34,71.0,79.0
71.02,71.0,73.0
71.18,71.0,83.0
71.09,71.0,75.0
71.05,71.0,76.0
71.11,71.0,77.0
71.18,71.0,77.0
71.11,71.0,77.0
71.04,71.0,75.0
71.1,71.0,79.0
71.16,71.0,79.0
71.08,71.0,76.0
71.19,71.0,77.0
71.0,71.0,71.0
71.1,71.0,77.0
71.09,71.0,78.0
71.04,71.0,74.0
71.45,71.0,78.0
71.38,71.0,88.0
71.2,71.0,82.0
71.09,71.0,78.0
71.06,71.0,74.0
71.02,71.0,72.0
71.06,71.0,77.0
71.13,71.0,80.0
71.0,71.0,71.0
71.27,71.0,81.0
71.16,71.0,79.0
71.2,71.0,78.0
71.16,71.0,76.0
71.25,71.0,78.0
71.36,71.0,76.0
71.2,71.0,79.0
71.0,71.0,71.0
71.0,71.0,71.0
71.1,71.0,81.0
71.06,71.0,75.0
71.31,71.0,80.0
71.21,71.0,79.0
71.1,71.0,77.0
71.13,71.0,74.0
71.13,71.0,79.0
71.26,71.0,77.0
71.17,71.0,77.0
71.04,71.0,74.0
71.11,71.0,79.0
71.15,71.0,78.0
71.01,71.0,72.0
71.16,71.0,78.0
71.25,71.0,78.0
71.07,71.0,77.0
71.05,71.0,73.0
71.05,71.0,73.0
71.08,71.0,75.0
71.23,71.0,82.0
71.04,71.0,75.0
71.51,71.0,80.0
71.05,71.0,75.0
71.06,71.0,75.0
71.06,71.0,76.0
71.19,71.0,78.0
71.08,71.0,75.0
71.32,71.0,81.0
71.02,71.0,73.0
71.0,71.0,71.0
71.1,71.0,77.0
71.19,71.0,77.0
71.26,71.0,77.0
71.0,71.0,71.0
71.12,71.0,77.0
71.0,71.0,71.0
71.08,71.0,75.0
71.11,71.0,81.0
71.06,71.0,74.0
71.49,71.0,83.0
71.02,71.0,73.0
71.33,71.0,78.0
71.06,71.0,77.0
71.35,71.0,81.0
71.22,71.0,77.0
71.06,71.0,76.0
71.18,71.0,80.0
71.11,71.0,78.0
71.05,71.0,72.0
71.12,71.0,76.0
71.07,71.0,75.0
71.25,71.0,80.0
71.18,71.0,77.0
71.02,71.0,73.0
71.0,71.0,71.0
71.13,71.0,77.0
71.16,71.0,80.0
71.38,71.0,85.0
71.22,71.0,77.0
71.02,71.0,72.0
71.03,71.0,73.0
71.04,71.0,75.0
71.02,71.0,73.0
71.12,71.0,78.0
71.01,71.0,72.0
71.01,71.0,72.0
71.01,71.0,72.0
71.07,71.0,76.0
71.2,71.0,84.0
71.03,71.0,73.0
71.24,71.0,76.0
71.04,71.0,75.0
71.0,71.0,71.0
71.0,71.0,71.0
71.1,71.0,77.0
71.02,71.0,73.0
71.12,71.0,77.0
71.33,71.0,78.0
71.08,71.0,77.0
71.02,71.0,73.0
71.22,71.0,78.0
71.14,71.0,79.0
71.02,71.0,72.0
71.2,71.0,81.0
71.04,71.0,74.0
71.04,71.0,74.0
71.06,71.0,76.0
71.19,71.0,82.0
71.0,71.0,71.0
71.01,71.0,72.0
71.09,71.0,76.0
71.12,71.0,76.0
71.2,71.0,81.0
71.26,71.0,82.0
71.23,71.0,78.0
71.08,71.0,76.0
71.02,71.0,72.0
71.39,71.0,81.0
71.18,71.0,80.0
71.18,71.0,81.0
71.38,71.0,80.0
71.08,71.0,75.0
71.21,71.0,78.0
71.06,71.0,75.0
71.01,71.0,72.0
71.33,71.0,79.0
71.24,71.0,78.0
71.13,71.0,79.0
71.22,71.0,78.0
71.1,71.0,80.0
71.11,71.0,78.0
71.2,71.0,79.0
71.09,71.0,74.0
71.09,71.0,75.0
71.12,71.0,80.0
71.08,71.0,74.0
71.09,71.0,76.0
71.07,71.0,75.0
71.35,71.0,81.0
71.3,71.0,79.0
71.17,71.0,78.0
71.07,71.0,74.0
71.11,71.0,80.0
71.12,71.0,76.0
71.02,71.0,73.0
71.12,71.0,74.0
71.18,71.0,76.0
71.42,71.0,82.0
71.26,71.0,79.0
71.11,71.0,79.0
71.05,71.0,75.0
71.0,71.0,71.0
71.2,71.0,80.0
71.23,71.0,79.0
71.19,71.0,79.0
71.01,71.0,72.0
71.17,71.0,79.0
71.07,71.0,78.0
71.0,71.0,71.0
71.03,71.0,74.0
71.0,71.0,71.0
71.01,71.0,72.0
71.28,71.0,81.0
71.27,71.0,80.0
71.15,71.0,77.0
71.18,71.0,78.0
71.19,71.0,79.0
71.15,71.0,78.0
71.2,71.0,79.0
71.12,71.0,77.0
71.26,71.0,79.0
71.3,71.0,79.0
71.29,71.0,79.0
71.1,71.0,75.0
71.02,71.0,72.0
71.34,71.0,81.0
71.11,71.0,76.0
71.01,71.0,72.0
71.15,71.0,80.0
71.36,71.0,80.0
71.25,71.0,80.0
71.05,71.0,75.0
71.15,71.0,78.0
71.19,71.0,81.0
71.25,71.0,78.0
71.24,71.0,80.0
71.3,71.0,79.0
71.21,71.0,77.0
71.13,71.0,77.0
71.16,71.0,77.0
71.19,71.0,80.0
71.12,71.0,77.0
71.17,71.0,78.0
71.14,71.0,78.0
71.16,71.0,74.0
71.02,71.0,72.0
71.4,71.0,82.0
71.31,71.0,80.0
71.21,71.0,77.0
71.33,71.0,79.0
71.32,71.0,80.0
71.1,71.0,76.0
71.14,71.0,78.0
71.06,71.0,76.0
71.35,71.0,80.0
71.04,71.0,73.0
71.16,71.0,81.0
71.16,71.0,79.0
71.05,71.0,74.0
71.37,71.0,77.0
71.01,71.0,72.0
71.3,71.0,80.0
71.3,71.0,80.0
71.15,71.0,82.0
71.06,71.0,74.0
71.23,71.0,77.0
71.1,71.0,75.0
71.0,71.0,71.0
71.16,71.0,80.0
71.01,71.0,72.0
71.03,71.0,74.0
71.18,71.0,79.0
71.29,71.0,80.0
71.3,71.0,79.0
71.02,71.0,73.0
71.05,71.0,73.0
71.03,71.0,72.0
71.01,71.0,72.0
71.1,71.0,78.0
71.26,71.0,77.0
71.03,71.0,73.0
71.28,71.0,80.0
71.17,71.0,76.0
71.07,71.0,76.0
71.05,71.0,76.0
71.05,71.0,74.0
71.04,71.0,75.0
71.33,71.0,80.0
71.0,71.0,71.0
71.03,71.0,73.0
71.1,71.0,75.0
71.02,71.0,73.0
71.09,71.0,75.0
71.04,71.0,74.0
71.02,71.0,72.0
71.05,71.0,76.0
71.18,71.0,77.0
71.09,71.0,74.0
71.18,71.0,77.0
71.08,71.0,77.0
71.1,71.0,78.0
71.03,71.0,74.0
71.14,71.0,78.0
71.25,71.0,80.0
71.03,71.0,73.0
71.18,71.0,74.0
71.14,71.0,80.0
71.0,71.0,71.0
71.28,71.0,80.0
71.26,71.0,79.0
71.19,71.0,78.0
71.26,71.0,79.0
71.02,71.0,73.0
71.29,71.0,78.0
71.02,71.0,73.0
71.12,71.0,76.0
71.0,71.0,71.0
71.0,71.0,71.0
71.09,71.0,77.0
71.21,71.0,77.0
71.16,71.0,79.0
71.1,71.0,77.0
71.0,71.0,71.0
71.02,71.0,73.0
71.1,71.0,77.0
71.32,71.0,78.0
71.24,71.0,78.0
71.33,71.0,81.0
71.01,71.0,72.0
71.23,71.0,78.0
71.09,71.0,74.0
71.22,71.0,79.0
71.16,71.0,80.0
71.0,71.0,71.0
71.12,71.0,78.0
71.1,71.0,75.0
71.26,71.0,81.0
71.39,71.0,79.0
71.16,71.0,80.0
71.29,71.0,81.0
71.04,71.0,73.0
71.06,71.0,77.0
71.0,71.0,71.0
71.2,71.0,81.0
71.08,71.0,77.0
71.12,71.0,75.0
71.08,71.0,77.0
71.17,71.0,77.0
71.13,71.0,80.0
71.11,71.0,77.0
71.0,71.0,71.0
71.0,71.0,71.0
71.08,71.0,75.0
71.01,71.0,72.0
71.14,71.0,76.0
71.15,71.0,79.0
71.25,71.0,81.0
71.2,71.0,80.0
71.12,71.0,83.0
71.02,71.0,73.0
71.47,71.0,81.0
71.14,71.0,77.0
71.13,71.0,76.0
71.06,71.0,74.0
71.08,71.0,76.0
71.09,71.0,74.0
71.2,71.0,79.0
71.2,71.0,79.0
71.0,71.0,71.0
71.06,71.0,75.0
71.1,71.0,79.0
71.07,71.0,78.0
71.12,71.0,78.0
71.17,71.0,78.0
71.07,71.0,78.0
71.1,71.0,79.0
71.04,71.0,75.0
71.0,71.0,71.0
71.05,71.0,74.0
71.09,71.0,76.0
71.13,71.0,75.0
71.05,71.0,73.0
71.12,71.0,77.0
71.32,71.0,85.0
71.0,71.0,71.0
71.0,71.0,71.0
71.17,71.0,75.0
71.15,71.0,81.0
71.0,71.0,71.0
71.13,71.0,79.0
71.05,71.0,74.0
71.12,71.0,75.0
71.03,71.0,74.0
71.17,71.0,79.0
71.07,70.0,76.0
70.97,70.0,75.0
70.78,70.0,71.0
70.56,70.0,76.0
70.47,70.0,78.0
70.48,70.0,80.0
70.13,70.0,75.0
70.15,70.0,78.0
70.08,70.0,73.0
70.28,70.0,78.0
70.31,70.0,76.0
70.18,70.0,75.0
70.18,70.0,79.0
70.09,70.0,78.0
70.0,70.0,70.0
70.11,70.0,76.0
70.19,70.0,76.0
70.15,70.0,74.0
70.23,70.0,75.0
70.02,70.0,71.0
70.01,70.0,71.0
70.09,70.0,74.0
70.17,70.0,77.0
70.25,70.0,79.0
70.02,70.0,72.0
70.05,70.0,73.0
70.22,70.0,81.0
70.33,70.0,80.0
70.1,70.0,77.0
70.18,70.0,78.0
70.12,70.0,78.0
70.1,70.0,76.0
70.14,70.0,78.0
70.11,70.0,75.0
70.0,70.0,70.0
70.05,70.0,73.0
70.2,70.0,78.0
70.16,70.0,83.0
70.28,70.0,76.0
70.08,70.0,73.0
70.18,70.0,78.0
70.1,70.0,76.0
70.2,70.0,76.0
70.28,70.0,78.0
70.27,70.0,77.0
70.21,70.0,83.0
70.05,70.0,74.0
70.03,70.0,73.0
70.04,70.0,72.0
70.0,70.0,70.0
70.02,70.0,72.0
70.08,70.0,75.0
70.17,70.0,77.0
70.17,70.0,81.0
70.12,70.0,78.0
70.1,70.0,74.0
70.0,70.0,70.0
70.16,70.0,81.0
70.13,70.0,77.0
70.07,70.0,73.0
70.21,70.0,81.0
70.11,70.0,79.0
70.01,70.0,71.0
70.08,70.0,74.0
70.21,70.0,79.0
70.04,70.0,72.0
70.07,70.0,73.0
70.42,70.0,80.0
70.49,70.0,78.0
70.17,70.0,75.0
70.12,70.0,79.0
70.03,70.0,73.0
70.05,70.0,72.0
70.05,70.0,74.0
70.11,70.0,76.0
70.3,70.0,78.0
70.04,70.0,72.0
70.09,70.0,74.0
70.17,70.0,83.0
70.09,70.0,79.0
70.01,70.0,71.0
70.09,70.0,75.0
70.17,70.0,75.0
70.24,70.0,79.0
70.11,70.0,78.0
70.29,70.0,78.0
70.01,70.0,71.0
70.06,70.0,76.0
70.06,70.0,75.0
70.13,70.0,77.0
70.19,70.0,76.0
70.03,70.0,73.0
70.06,70.0,76.0
70.21,70.0,78.0
70.09,70.0,77.0
70.01,70.0,71.0
70.24,70.0,76.0
70.22,70.0,77.0
70.09,70.0,75.0
70.2,70.0,78.0
70.1,70.0,78.0
70.17,70.0,80.0
70.0,69.0,74.0
70.06,69.0,77.0
69.86,69.0,76.0
69.83,69.0,80.0
69.21,69.0,71.0
69.14,69.0,73.0
69.05,69.0,72.0
69.26,69.0,75.0
69.05,69.0,74.0
69.0,69.0,69.0
68.94,68.0,69.0
69.13,68.0,77.0
68.99,68.0,73.0
68.93,68.0,69.0
69.27,68.0,78.0
68.96,68.0,73.0
68.73,68.0,70.0
68.67,68.0,75.0
68.38,68.0,74.0
68.15,68.0,74.0
68.22,68.0,77.0
68.0,68.0,68.0
68.11,68.0,73.0
68.06,68.0,73.0
68.02,68.0,70.0
68.06,68.0,73.0
68.0,68.0,68.0
68.0,68.0,68.0
68.05,68.0,73.0
68.04,68.0,72.0
68.28,68.0,76.0
68.06,68.0,72.0
68.05,68.0,72.0
68.05,68.0,71.0
68.45,68.0,79.0
68.1,68.0,74.0
68.17,68.0,76.0
68.28,68.0,76.0
68.16,68.0,74.0
68.02,68.0,70.0
68.34,68.0,81.0
68.29,68.0,77.0
68.17,68.0,76.0
68.1,68.0,72.0
68.11,68.0,75.0
68.07,68.0,73.0
68.14,68.0,75.0
68.07,68.0,73.0
68.0,68.0,68.0
68.14,68.0,78.0
68.2,68.0,74.0
68.1,68.0,72.0
68.1,68.0,71.0
68.17,68.0,76.0
68.16,68.0,78.0
68.16,68.0,77.0
68.0,68.0,68.0
68.0,68.0,68.0
68.03,68.0,71.0
68.13,68.0,74.0
68.19,68.0,73.0
68.09,68.0,73.0
68.06,68.0,73.0
68.07,68.0,72.0
68.22,68.0,74.0
68.0,68.0,68.0
68.11,68.0,79.0
68.03,68.0,71.0
68.03,68.0,71.0
68.0,68.0,68.0
68.18,68.0,78.0
68.02,68.0,69.0
68.0,68.0,68.0
68.0,68.0,68.0
68.06,68.0,72.0
68.08,68.0,76.0
68.14,68.0,76.0
68.21,68.0,77.0
68.0,68.0,68.0
68.39,68.0,73.0
68.17,68.0,73.0
68.15,68.0,76.0
68.18,68.0,74.0
68.21,68.0,74.0
68.52,68.0,77.0
68.11,68.0,75.0
68.06,68.0,70.0
68.06,68.0,74.0
68.06,68.0,71.0
68.14,68.0,74.0
68.06,68.0,74.0
68.07,68.0,72.0
68.0,68.0,68.0
68.0,68.0,68.0
68.14,68.0,78.0
68.24,68.0,76.0
68.05,68.0,73.0
68.09,68.0,75.0
68.16,68.0,71.0
68.02,68.0,70.0
68.28,68.0,78.0
68.19,68.0,76.0
68.0,68.0,68.0
68.22,68.0,77.0
68.17,68.0,74.0
68.15,68.0,77.0
68.33,68.0,75.0
68.02,68.0,70.0
68.3,68.0,79.0
68.0,68.0,68.0
68.08,68.0,76.0
68.13,68.0,72.0
68.32,68.0,77.0
68.14,68.0,75.0
68.03,68.0,71.0
68.15,68.0,78.0
68.1,68.0,74.0
68.2,68.0,80.0
68.15,68.0,83.0
68.1,68.0,73.0
68.05,68.0,70.0
68.08,68.0,74.0
68.04,68.0,70.0
68.17,68.0,77.0
68.09,68.0,73.0
68.0,68.0,68.0
68.32,68.0,80.0
68.28,68.0,74.0
68.16,68.0,72.0
68.06,68.0,72.0
68.05,68.0,73.0
68.17,68.0,74.0
68.0,68.0,68.0
68.13,68.0,72.0
68.05,68.0,70.0
68.12,68.0,73.0
68.19,68.0,77.0
68.12,68.0,74.0
68.13,68.0,73.0
68.02,68.0,70.0
68.04,68.0,70.0
68.22,68.0,77.0
68.1,68.0,74.0
68.09,68.0,73.0
68.19,68.0,80.0
68.0,68.0,68.0
68.12,68.0,73.0
68.26,68.0,73.0
68.03,68.0,71.0
68.11,68.0,75.0
68.0,68.0,68.0
68.15,68.0,76.0
68.16,68.0,73.0
68.1,68.0,72.0
68.02,68.0,69.0
68.0,68.0,68.0
68.18,68.0,75.0
68.17,68.0,73.0
68.13,68.0,73.0
68.21,68.0,77.0
68.12,68.0,74.0
68.12,68.0,74.0
68.04,68.0,70.0
